NAME : CMT11.1042108.tour
COMMENT : Cost = 0_1042108
COMMENT : Found by LKH [Keld Helsgaun] Wed Sep 13 12:23:59 2017
TYPE : TOUR
DIMENSION : 127
TOUR_SECTION
1
83
112
87
86
90
92
91
115
19
119
109
84
114
118
85
113
82
120
126
107
74
77
69
78
80
81
79
76
73
75
72
71
70
68
108
125
96
38
39
40
43
42
45
48
47
50
51
52
49
46
44
41
127
89
3
2
4
5
6
7
8
10
11
12
16
15
14
13
9
124
101
54
56
59
57
61
64
67
65
63
62
66
60
58
55
53
122
88
93
94
97
95
98
116
111
99
117
104
105
100
102
103
106
121
123
18
17
20
26
23
25
28
34
31
32
35
37
30
36
33
29
27
24
21
22
110
-1
EOF
